# Solution for model r5_t18_m7_8
# Finished Task: 18 / 18
# Makespan: 569.0, Total Distance: 1058.0, Total Time: 0.0704
# R O S F
0 0 9 0.0 0.0
1 1 15 0.0 0.0
2 2 10 0.0 0.0
3 3 6 0.0 0.0
4 4 21 0.0 0.0
5 3 -1 522.0 544.0
6 3 18 307.0 332.0
7 0 -1 531.0 569.0
8 2 19 340.0 361.0
9 0 12 283.0 307.0
10 2 8 273.0 303.0
11 2 -1 532.0 552.0
12 0 20 430.0 458.0
13 4 -1 525.0 562.0
14 1 -1 478.0 508.0
15 1 16 307.0 338.0
16 1 14 369.0 392.0
17 3 5 484.0 513.0
18 3 17 416.0 446.0
19 2 11 448.0 478.0
20 0 7 481.0 517.0
21 4 22 338.0 368.0
22 4 13 432.0 461.0
